; benchmark generated from python API
(set-info :status unknown)
(declare-datatypes ((IntState 0)) (((Mk1 (val1 Int)) (Mk2 (val2 Int)))))
 (declare-fun c_main_~n~22 () Int)
(declare-fun c_main_~f1~22 () Int)
(declare-fun |c_main_#t~ret12| () Int)
(assert
 (let (($x115 (exists ((v_nnf_16_st IntState) (val!126 Int) )(exists ((v_nnf_17_st IntState) (val!127 Int) )(let (($x128 (<= c_main_~n~22 2)))
 (let (($x103 (<= (+ (* 2 (val2 v_nnf_16_st)) (* 2 (val2 v_nnf_17_st)) 1) |c_main_#t~ret12|)))
 (let (($x160 (and $x103 (<= c_main_~f1~22 (val2 v_nnf_16_st)) $x128 (<= (val2 v_nnf_16_st) (val2 v_nnf_17_st)))))
 (let (($x52 (not (= v_nnf_17_st (Mk1 val!127)))))
 (let (($x35 (not (= v_nnf_16_st (Mk1 val!126)))))
 (and $x35 $x52 $x160)))))))
 )
 ))
 (let (($x128 (<= c_main_~n~22 2)))
 (let (($x108 (exists ((v_nnf_16 Int) )(exists ((v_nnf_17 Int) )(let (($x128 (<= c_main_~n~22 2)))
 (and (<= (+ (* 2 v_nnf_16) (* 2 v_nnf_17) 1) |c_main_#t~ret12|) (<= c_main_~f1~22 v_nnf_16) $x128 (<= v_nnf_16 v_nnf_17))))
 )
 ))
 (and $x108 (not (and $x128 $x115)))))))
(check-sat)
